
******************************************************************************
This program contains Ipopt, a library for large-scale nonlinear optimization.
 Ipopt is released as open source code under the Eclipse Public License (EPL).
         For more information visit http://projects.coin-or.org/Ipopt
******************************************************************************

This is Ipopt version 3.12.6, running with linear solver ma57.

Number of nonzeros in equality constraint Jacobian...:    13421
Number of nonzeros in inequality constraint Jacobian.:     2982
Number of nonzeros in Lagrangian Hessian.............:      357

Total number of variables............................:     1515
                     variables with only lower bounds:        0
                variables with lower and upper bounds:      595
                     variables with only upper bounds:        0
Total number of equality constraints.................:     1065
Total number of inequality constraints...............:     1286
        inequality constraints with only lower bounds:        0
   inequality constraints with lower and upper bounds:        0
        inequality constraints with only upper bounds:     1286

iter    objective    inf_pr   inf_du lg(mu)  ||d||  lg(rg) alpha_du alpha_pr  ls
   0 -5.1478213e+00 1.67e+03 1.00e+02  -1.0 0.00e+00    -  0.00e+00 0.00e+00   0
Reallocating memory for MA57: lfact (217048)
   1 -2.4077384e+03 1.67e+03 1.00e+02  -1.0 1.70e+03    -  4.52e-04 8.02e-05f  1
   2 -3.1811656e+04 1.67e+03 9.99e+01  -1.0 1.70e+03    -  5.57e-04 9.82e-04f  1
   3 -1.2449557e+05 1.66e+03 9.96e+01  -1.0 1.71e+03    -  1.26e-03 3.10e-03f  1
   4 -2.6298655e+05 1.65e+03 9.91e+01  -1.0 1.70e+03    -  2.95e-03 4.67e-03f  1
   5 -3.8321989e+05 1.65e+03 9.87e+01  -1.0 1.69e+03    -  7.09e-03 4.09e-03f  1
   6 -9.4007560e+05 1.62e+03 9.68e+01  -1.0 1.68e+03    -  4.11e-03 1.93e-02f  1
   7 -4.2753379e+06 1.41e+03 8.47e+01  -1.0 1.65e+03    -  1.04e-02 1.27e-01f  1
   8 -4.8180525e+06 1.37e+03 8.26e+01  -1.0 1.43e+03    -  1.88e-02 2.57e-02f  1
   9 -5.0892416e+06 1.36e+03 8.15e+01  -1.0 1.39e+03    -  6.78e-03 1.35e-02f  1
iter    objective    inf_pr   inf_du lg(mu)  ||d||  lg(rg) alpha_du alpha_pr  ls
  10 -5.2503653e+06 1.35e+03 8.08e+01  -1.0 1.37e+03    -  1.09e-02 8.20e-03f  1
  11 -5.4303604e+06 1.33e+03 8.01e+01  -1.0 1.34e+03    -  8.84e-03 9.36e-03f  1
  12 -6.2436592e+06 1.27e+03 7.66e+01  -1.0 1.35e+03    -  5.66e-03 4.36e-02f  1
  13 -6.3089989e+06 1.27e+03 7.63e+01  -1.0 1.29e+03    -  1.10e-02 3.76e-03f  1
  14 -6.5140227e+06 1.25e+03 7.54e+01  -1.0 1.24e+03    -  3.51e-03 1.20e-02f  1
  15 -6.5796438e+06 1.25e+03 7.51e+01  -1.0 1.27e+03    -  1.08e-02 3.90e-03f  1
  16 -6.8250116e+06 1.23e+03 7.40e+01  -1.0 1.22e+03    -  3.54e-03 1.49e-02f  1
  17 -6.8617230e+06 1.23e+03 7.38e+01  -1.0 1.24e+03    -  1.23e-02 2.26e-03f  1
  18 -7.1838391e+06 1.20e+03 7.23e+01  -1.0 1.19e+03    -  3.49e-03 2.03e-02f  1
  19 -7.2087498e+06 1.20e+03 7.22e+01  -1.0 1.21e+03    -  1.43e-02 1.61e-03f  1
iter    objective    inf_pr   inf_du lg(mu)  ||d||  lg(rg) alpha_du alpha_pr  ls
  20 -7.6511523e+06 1.17e+03 7.01e+01  -1.0 1.17e+03    -  4.40e-03 2.93e-02f  1
  21 -7.6730170e+06 1.16e+03 7.00e+01  -1.0 1.16e+03    -  1.77e-02 1.50e-03f  1
  22 -8.3175643e+06 1.11e+03 6.68e+01  -1.0 1.13e+03    -  7.50e-03 4.58e-02f  1
  23 -8.3416392e+06 1.11e+03 6.67e+01  -1.0 1.10e+03    -  2.33e-02 1.83e-03f  1
  24 -9.3101540e+06 1.02e+03 6.16e+01  -1.0 1.08e+03    -  2.43e-02 7.69e-02f  1
  25 -9.3466703e+06 1.02e+03 6.13e+01  -1.0 9.97e+02    -  4.38e-02 3.27e-03f  1
  26 -9.9570570e+06 9.63e+02 5.79e+01  -1.0 9.76e+02    -  1.85e-02 5.67e-02f  1
  27 -1.0145630e+07 9.44e+02 5.68e+01  -1.0 9.26e+02    -  2.77e-02 1.93e-02f  1
  28 -1.0663747e+07 8.91e+02 5.36e+01  -1.0 8.99e+02    -  1.08e-02 5.63e-02f  1
  29 -1.0869973e+07 8.69e+02 5.22e+01  -1.0 8.25e+02    -  4.92e-02 2.48e-02f  1
iter    objective    inf_pr   inf_du lg(mu)  ||d||  lg(rg) alpha_du alpha_pr  ls
  30 -1.0953205e+07 8.60e+02 5.17e+01  -1.0 8.18e+02    -  2.03e-02 1.04e-02f  1
  31 -1.1239303e+07 8.28e+02 4.98e+01  -1.0 8.55e+02    -  2.22e-02 3.67e-02f  1
  32 -1.1623819e+07 7.84e+02 4.71e+01  -1.0 8.26e+02    -  7.37e-02 5.35e-02f  1
  33 -1.2738608e+07 6.39e+02 3.84e+01  -1.0 7.86e+02    -  8.38e-02 1.85e-01f  1
  34 -1.3032517e+07 5.95e+02 3.58e+01  -1.0 6.42e+02    -  3.04e-02 6.86e-02f  1
  35 -1.3276301e+07 5.56e+02 3.35e+01  -1.0 5.98e+02    -  7.20e-02 6.52e-02f  1
  36 -1.3536205e+07 5.12e+02 3.08e+01  -1.0 5.70e+02    -  9.81e-02 7.98e-02f  1
  37 -1.3750217e+07 4.72e+02 3.21e+01  -1.0 5.36e+02    -  1.72e-01 7.71e-02f  1
  38 -1.4212176e+07 3.74e+02 2.25e+01  -1.0 5.08e+02    -  1.24e-01 2.08e-01f  1
  39 -1.4685669e+07 2.38e+02 1.43e+01  -1.0 4.12e+02    -  4.26e-02 3.65e-01f  1
iter    objective    inf_pr   inf_du lg(mu)  ||d||  lg(rg) alpha_du alpha_pr  ls
  40 -1.4805029e+07 1.90e+02 1.14e+01  -1.0 2.68e+02    -  1.90e-01 2.01e-01f  1
  41 -1.4975864e+07 8.84e+01 1.37e+01  -1.0 2.33e+02    -  1.38e-01 5.35e-01f  1
  42 -1.5015486e+07 4.35e+01 1.19e+01  -1.0 1.21e+02    -  2.83e-01 5.08e-01f  1
  43 -1.5030706e+07 8.46e+00 1.53e+01  -1.0 6.42e+01    -  2.38e-01 8.06e-01f  1
  44 -1.5031426e+07 6.25e+00 1.00e+01  -1.0 2.60e+01    -  3.13e-01 2.61e-01f  1
  45 -1.5032611e+07 2.02e+00 6.79e+00  -1.0 2.63e+01    -  2.81e-01 6.77e-01f  1
  46 -1.5032815e+07 1.35e+00 1.25e+01  -1.0 1.58e+01    -  2.10e-01 3.31e-01f  1
  47 -1.5033021e+07 5.84e-01 2.99e+01  -1.0 1.37e+01    -  9.46e-01 5.68e-01f  1
  48 -1.5033089e+07 2.50e-01 7.20e+01  -1.0 7.15e+00    -  8.50e-01 5.71e-01f  1
  49 -1.5033110e+07 1.16e-01 5.48e+00  -1.0 1.11e+01    -  4.56e-01 5.35e-01f  1
iter    objective    inf_pr   inf_du lg(mu)  ||d||  lg(rg) alpha_du alpha_pr  ls
  50 -1.5033114e+07 8.21e-02 5.10e+02  -1.0 7.82e+00    -  7.80e-01 2.94e-01h  2
  51 -1.5033119e+07 9.02e-03 2.05e+02  -1.0 6.38e+00    -  9.90e-01 8.90e-01h  1
  52 -1.5033119e+07 6.61e-03 9.86e+03  -1.0 1.63e+00    -  9.90e-01 2.68e-01h  1
  53 -1.5033119e+07 1.99e-03 8.39e+03  -1.0 1.17e+00    -  1.00e+00 6.99e-01h  1
  54 -1.5033119e+07 9.66e-04 3.08e+04  -1.0 3.58e-01    -  1.00e+00 5.15e-01h  1
  55 -1.5033119e+07 2.39e-04 3.15e+04  -1.0 1.74e-01    -  1.00e+00 7.52e-01h  1
  56 -1.5033119e+07 2.30e-04 2.47e+05  -1.0 4.30e-02    -  1.00e+00 3.99e-02h  5
  57 -1.5033119e+07 3.67e-06 6.10e+03  -1.0 4.13e-02    -  1.00e+00 9.84e-01h  1
  58 -1.5033119e+07 2.61e-10 1.00e-06  -1.0 6.58e-04    -  1.00e+00 1.00e+00f  1
  59 -1.5033451e+07 1.97e-09 3.81e+04  -3.8 6.71e+00    -  8.55e-01 8.02e-01f  1
iter    objective    inf_pr   inf_du lg(mu)  ||d||  lg(rg) alpha_du alpha_pr  ls
  60 -1.5033493e+07 9.75e-10 4.26e+04  -3.8 1.01e+01    -  7.31e-01 5.04e-01f  1
Reallocating memory for MA57: lfact (229350)
  61 -1.5033523e+07 3.00e-10 4.74e+03  -3.8 1.27e+01    -  3.96e-01 6.93e-01f  1
  62 -1.5033533e+07 6.63e-11 6.28e+02  -3.8 7.31e+00    -  6.78e-01 7.77e-01f  1
  63 -1.5033536e+07 1.67e-11 6.47e+02  -3.8 2.62e+00    -  8.95e-01 7.48e-01f  1
  64 -1.5033537e+07 1.32e-12 8.60e+01  -3.8 8.82e-01    -  1.00e+00 9.30e-01f  1
  65 -1.5033537e+07 1.18e-12 1.50e-09  -3.8 1.62e-01    -  1.00e+00 1.00e+00f  1
  66 -1.5033538e+07 1.19e-12 9.78e+01  -5.7 2.97e-01    -  9.55e-01 8.64e-01f  1
Reallocating memory for MA57: lfact (250962)
  67 -1.5033538e+07 2.27e-12 2.37e-11  -5.7 9.95e-02    -  1.00e+00 1.00e+00f  1
  68 -1.5033538e+07 7.51e-13 5.75e+00  -8.6 1.86e-02    -  9.09e-01 4.90e-01f  1
  69 -1.5033538e+07 7.96e-13 3.09e+00  -8.6 1.09e-02    -  4.53e-01 4.62e-01f  1
iter    objective    inf_pr   inf_du lg(mu)  ||d||  lg(rg) alpha_du alpha_pr  ls
  70 -1.5033538e+07 1.05e-12 1.18e+00  -8.6 7.54e-03    -  8.69e-01 6.25e-01f  1
Reallocating memory for MA57: lfact (264511)
  71 -1.5033538e+07 3.24e-12 1.08e-01  -8.6 4.84e-03    -  6.33e-01 9.11e-01f  1
  72 -1.5033538e+07 1.21e-12 5.41e-02  -8.6 1.71e-03    -  9.07e-02 1.00e+00f  1
  73 -1.5033538e+07 3.02e-12 1.14e-13  -8.6 5.45e-04    -  1.00e+00 1.00e+00h  1
Reallocating memory for MA57: lfact (283032)
  74 -1.5033538e+07 8.74e-13 2.27e-13  -8.6 4.72e-04    -  1.00e+00 1.00e+00h  1
  75 -1.5033538e+07 1.49e-12 2.27e-13  -9.0 2.38e-04    -  1.00e+00 1.00e+00h  1

Number of Iterations....: 75

                                   (scaled)                 (unscaled)
Objective...............:  -2.0879913798177242e+06   -1.5033537934687614e+07
Dual infeasibility......:   2.2737367544323206e-13    1.6370904631912707e-12
Constraint violation....:   8.4056611497629330e-13    1.4938050796331481e-12
Complementarity.........:   4.6893846952775730e-09    3.3763569805998524e-08
Overall NLP error.......:   4.6893846952775730e-09    3.3763569805998524e-08


Number of objective function evaluations             = 81
Number of objective gradient evaluations             = 76
Number of equality constraint evaluations            = 81
Number of inequality constraint evaluations          = 81
Number of equality constraint Jacobian evaluations   = 76
Number of inequality constraint Jacobian evaluations = 76
Number of Lagrangian Hessian evaluations             = 75
Total CPU secs in IPOPT (w/o function evaluations)   =      0.780
Total CPU secs in NLP function evaluations           =      0.033

EXIT: Optimal Solution Found.
Note: The following floating-point exceptions are signalling: IEEE_OVERFLOW_FLAG IEEE_UNDERFLOW_FLAG IEEE_DENORMAL

************************ CUTEst statistics ************************


 Package used            :  IPOPT
 Problem                 :  MPC6      
 # variables             =            1530
 # constraints           =            2351
 # objective functions   =        0.1580000E+03
 # objective gradients   =        0.7700000E+02
 # objective Hessians    =        0.7600000E+02
 # Hessian-vector prdct  =        0.0000000E+00
 # constraints functions =        0.1590000E+03
 # constraints gradients =        0.7800000E+02
 # constraints Hessians  =        0.7600000E+02
 Exit code               =               0
 Final f                 =  -0.1503354E+08
 Set up time             =            0.05 seconds
 Solve time              =            1.01 seconds


******************************************************************

System Time =       0.7929999828 s.
